100
300
50
0 0
66 63
23 79
90 96
13 35
8 35
88 69
10 96
31 11
78 77
31 37
11 92
49 38
16 50
48 96
96 57
63 69
3 28
86 7
68 64
83 63
4 38
47 48
54 84
34 21
94 91
80 60
13 55
47 63
51 52
28 71
46 24
55 75
53 4
47 66
35 44
12 43
48 37
3 88
82 70
61 16
88 79
33 45
40 9
38 84
69 49
6 85
22 37
40 69
80 1
45 52
0 0
60
50
50
60
60
50
40
70
50
70
60
30
40
70
60
40
60
70
40
70
30
30
40
60
70
60
50
50
60
60
50
40
70
50
70
60
30
40
70
60
40
60
70
40
70
30
30
40
60
70
